InboundTrucks  = 8;
OutboundTrucks = 5;
InboundDoors   = 2;
OutboundDoors  = 1;
ReleaseTime    = [18,6,17,11,14,1,21,16];
UnloadTime     = [7,20,8,30,10,16,23,26];
LoadTime       = [7,11,15,3,9];
TransferTime   = [| 4,3,2,8,9 | 6,4,8,6,4 | 7,7,4,2,7 | 8,5,4,2,10 | 6,5,7,7,4 | 7,2,7,7,1 | 8,4,9,2,6 | 1,6,6,1,5 |];
